c Sudoku solution
p cnf 729 0
179 0
221 0
263 0
275 0
292 0
339 0
352 0
381 0
397 0
426 0
431 0
543 0
555 0
584 0
637 0
646 0
695 0
415 0
716 0
747 0
765 0
853 0
868 0
871 0
751 0
911 0
141 0
345 0
591 0
576 0
661 0
567 0
366 0
164 0
374 0
956 0
882 0
985 0
896 0
977 0
487 0
969 0
942 0
844 0
835 0
125 0
827 0
819 0
529 0
462 0
672 0
722 0
454 0
313 0
328 0
623 0
614 0
217 0
234 0
136 0
112 0
286 0
157 0
518 0
532 0
924 0
794 0
789 0
183 0
198 0
688 0
473 0
499 0
448 0
659 0
249 0
258 0
778 0
993 0
733 0
938 0
